NAME : mtspf.pid5933.gtsp.238592043.tour
COMMENT : Length = 238592043
COMMENT : Found by LKH [Keld Helsgaun] Sun Mar  2 12:51:32 2025
TYPE : TOUR
DIMENSION : 135
TOUR_SECTION
1
49
50
51
48
102
103
100
101
107
104
105
106
7
70
71
68
69
114
115
112
113
128
129
130
131
124
125
126
127
9
110
111
108
109
37
38
39
36
66
67
64
65
54
55
52
53
63
60
61
62
19
16
17
18
2
11
10
59
56
57
58
45
46
47
44
13
5
3
15
12
22
23
20
21
122
123
120
121
42
43
40
41
14
26
27
24
25
96
97
98
99
6
135
132
133
134
72
73
74
75
83
80
81
82
119
116
117
118
30
31
28
29
85
86
87
84
4
89
90
91
88
77
78
79
76
32
33
34
35
95
92
93
94
8
-1
EOF
